NAME : C107
TYPE : CVRPTW
DIMENSION : 26
VEHICLES : 3
CAPACITY : 200
SERVICE_TIME : 90
SCALE : 10
EDGE_WEIGHT_TYPE : FLOOR_2D
NODE_COORD_SECTION
1 40 50
2 45 68
3 45 70
4 42 66
5 42 68
6 42 65
7 40 69
8 40 66
9 38 68
10 38 70
11 35 66
12 35 69
13 25 85
14 22 75
15 22 85
16 20 80
17 20 85
18 18 75
19 15 75
20 15 80
21 30 50
22 30 52
23 28 52
24 28 55
25 25 50
26 25 52
DEMAND_SECTION
1 0
2 10
3 30
4 10
5 10
6 10
7 20
8 20
9 20
10 10
11 10
12 10
13 20
14 30
15 10
16 40
17 40
18 20
19 20
20 10
21 10
22 20
23 20
24 10
25 10
26 40
TIME_WINDOW_SECTION
1 0 1236
2 850 1030
3 758 938
4 16 196
5 665 845
6 15 195
7 572 752
8 108 288
9 200 380
10 480 660
11 294 474
12 387 567
13 597 777
14 30 210
15 504 684
16 317 497
17 412 592
18 34 214
19 127 307
20 222 402
21 10 190
22 850 1030
23 758 938
24 665 845
25 15 195
26 107 287
DEPOT_SECTION
1 
-1
EOF
